
(set-logic ALL) 

(declare-datatype MyList ((Nil) (Cons (head Real) (tail MyList)) )) 
(declare-fun l0 () MyList) 
(declare-fun l1 () MyList) 
(declare-fun l2 () MyList) 
(declare-fun l3 () MyList) 
(declare-fun i0 () Real) 
(declare-fun i1 () Real) 
(assert (and (= l3 Nil) (is-Nil Nil) (= l0 Nil)) )
(assert (not (= l1 l1)) )
(assert (or (= l0 Nil) (= l1 Nil) (= l2 Nil)) )
(assert (and (= l1 Nil) (= l0 Nil) (= l2 Nil)) )
(assert (= l2 l0) )
(assert (and (= l0 Nil) (= l0 l1) (= l3 l1)) )
(assert (= l3 Nil) )
(assert (is-Cons Nil) )
(check-sat)
